/*********************************************
    * Lab01 - simple
    * Author: Coso
    * Creation Date: Mar, 2019
    *********************************************/
instance_name = "small_instance_25_simple";

d = 2;
r = 3;

SCj = [89 82];
Dk = [52 28 62];

Cjk = [[68 59 55]
 [55 34 35]];
